100 100 100
50
50 8 8
42 5 26
73 1 98
67 97 49
34 48 16
88 91 23
94 100 92
29 32 46
4 46 34
30 46 37
80 92 23
72 12 83
25 22 12
70 49 78
24 89 83
88 73 24
92 79 37
25 41 39
89 60 69
20 28 41
81 75 23
76 54 90
20 38 31
50 47 22
6 10 49
41 32 48
72 72 27
87 15 89
24 69 91
18 14 25
91 93 92
19 16 13
46 84 77
89 65 52
73 77 97
15 43 33
100 99 56
18 67 81
79 50 56
50 8 19
3 17 14
17 33 44
19 79 81
32 14 23
95 3 69
97 82 61
39 43 34
40 27 46
91 88 10
89 2 84
